h=7;
w=7;
left=[0, 3, 0, 3, 0, 0, 0];
right=[3, 3, 0, 0, 0, 0, 0];
top=[3, 4, 1, 0, 0, 0, 0];
down=[3, 2, 0, 0, 0, 0, 0];
b=[|1,4,7,2,0,0,0|0,0,0,4,0,5,3|0,0,4,0,0,0,0|0,0,1,7,0,0,4|6,0,0,0,2,4,0|0,0,5,1,0,0,0|0,3,0,0,5,0,0|]